50 876

120 136
16 24
4 6
120 136
28 42
45 51
32 48
8 12
20 30
28 42
32 48
75 85
32 48
90 102
45 51
4 6
8 12
28 42
12 18
24 36
75 85
60 68
30 34
75 85
135 153
12 18
8 12
8 12
4 6
15 17
12 18
24 36
4 6
16 24
24 36
60 68
24 36
15 17
32 48
30 34
4 6
4 6
24 36
4 6
32 48
32 48
60 68
8 12
135 153
15 17
